WARNING: for repeatability, setting FPU to use double precision
============================[ Problem Statistics ]=============================
|                                                                             |
|  Number of variables:         14399                                         |
|  Number of clauses:          264004                                         |
|  Parse time:                   0.07 s                                       |
|  Eliminated clauses:           0.00 Mb                                      |
|  Simplification time:          0.08 s                                       |
|                                                                             |
============================[ Search Statistics ]==============================
| Conflicts |          ORIGINAL         |          LEARNT          | Progress |
|           |    Vars  Clauses Literals |    Limit  Clauses Lit/Cl |          |
===============================================================================
===============================================================================
restarts              : 1
conflicts             : 7              (49 /sec)
decisions             : 281            (0.00 % random) (1949 /sec)
propagations          : 14351          (99527 /sec)
conflict literals     : 310            (0.00 % deleted)
Memory used           : 36.00 MB
CPU time              : 0.144192 s

SATISFIABLE
